c defined variables: 8 9 10 11 12 13 14 15 16 17 18 19 20 21 22 23 24 25 26 27 28 29 30 31 32 33 50 51 52 55 59 60 61 62 63 64 65 66 67 69 70 71 72 73 74 75 76 77 78 79 80 81 82 83 84 
p cnf 409 625
a 1 2 3 4 5 6 7 37 38 39 40 41 42 43 44 45 46 47 48 49 0
e 8 9 10 11 12 13 14 15 16 17 18 19 20 21 22 23 24 25 26 27 28 29 30 31 32 33 50 51 52 55 59 60 61 62 63 64 65 66 67 69 70 71 72 73 74 75 76 77 78 79 80 81 82 83 84 314 315 316 317 318 319 320 321 322 323 324 325 326 327 328 329 330 331 332 333 334 335 336 337 338 339 340 341 342 343 344 345 346 347 348 349 350 351 352 353 354 355 356 357 358 359 360 361 362 363 364 365 366 367 368 369 370 371 372 373 374 375 376 377 378 379 380 381 382 383 384 385 386 387 388 389 390 391 392 393 394 395 396 397 398 399 400 401 402 403 404 405 406 407 408 409 0
d 34 39 40 41 42 0
d 35 37 38 0
d 36 43 44 45 46 47 48 49 0
d 53 1 2 3 4 5 6 7 37 38 39 40 41 42 43 44 45 46 47 48 49 0
d 54 1 2 3 4 5 6 7 37 38 39 40 41 42 43 44 45 46 47 48 49 0
d 56 1 2 3 4 5 6 7 37 38 39 40 41 42 43 44 45 46 47 48 49 0
d 57 1 2 3 4 5 6 7 37 38 39 40 41 42 43 44 45 46 47 48 49 0
d 58 1 2 3 4 5 6 7 37 38 39 40 41 42 43 44 45 46 47 48 49 0
d 68 1 2 3 4 5 6 7 37 38 39 40 41 42 43 44 45 46 47 48 49 0
d 85 1 2 3 4 5 6 7 37 38 39 40 41 42 43 44 45 46 47 48 49 0
314 -8 0
-314 8 0
315 -9 0
-315 9 0
-316 -10 0
316 10 0
317 -11 0
-317 11 0
318 -12 0
-318 12 0
-319 -13 0
319 13 0
320 -14 0
-320 14 0
321 -15 0
-321 15 0
-322 -16 0
322 16 0
323 -17 0
-323 17 0
324 -18 0
-324 18 0
-325 -19 0
325 19 0
326 -20 0
-326 20 0
327 -21 0
-327 21 0
-328 -22 0
328 22 0
-329 -23 0
329 23 0
330 -24 0
-330 24 0
332 -25 0
-332 25 0
334 -26 0
-334 26 0
-336 -27 0
336 27 0
337 -28 0
-337 28 0
338 -29 0
-338 29 0
340 -30 0
-340 30 0
341 -31 0
-341 31 0
342 -32 0
-342 32 0
-346 -33 0
346 33 0
323 -50 0
-323 50 0
324 -51 0
-324 51 0
-347 -52 0
347 52 0
-348 -55 0
348 55 0
341 -59 0
-341 59 0
351 -60 0
-351 60 0
-355 -61 0
355 61 0
314 -62 0
-314 62 0
315 -63 0
-315 63 0
-356 -64 0
356 64 0
357 -65 0
-357 65 0
358 -66 0
-358 66 0
-359 -67 0
359 67 0
362 -69 0
-362 69 0
365 -70 0
-365 70 0
368 -71 0
-368 71 0
371 -72 0
-371 72 0
374 -73 0
-374 73 0
377 -74 0
-377 74 0
380 -75 0
-380 75 0
383 -76 0
-383 76 0
386 -77 0
-386 77 0
389 -78 0
-389 78 0
392 -79 0
-392 79 0
395 -80 0
-395 80 0
398 -81 0
-398 81 0
401 -82 0
-401 82 0
404 -83 0
-404 83 0
409 -84 0
-409 84 0
-8 1 0
-8 4 0
-1 -4 8 0
-9 -1 0
-9 -4 0
1 4 9 0
-8 10 0
-9 10 0
-10 8 9 0
-11 7 0
-11 10 0
-7 -10 11 0
-12 -7 0
-12 -10 0
7 10 12 0
-11 13 0
-12 13 0
-13 11 12 0
-14 4 0
-14 7 0
-4 -7 14 0
-15 1 0
-15 -13 0
-1 13 15 0
-14 16 0
-15 16 0
-16 14 15 0
-17 3 0
-17 6 0
-3 -6 17 0
-18 -3 0
-18 -6 0
3 6 18 0
-17 19 0
-18 19 0
-19 17 18 0
-20 16 0
-20 19 0
-16 -19 20 0
-21 -16 0
-21 -19 0
16 19 21 0
-20 22 0
-21 22 0
-22 20 21 0
-2 23 0
-5 23 0
-23 2 5 0
-24 2 0
-24 5 0
-2 -5 24 0
-25 3 0
-25 -22 0
-25 23 0
-3 22 -23 25 0
-26 6 0
-26 16 0
-26 23 0
-6 -16 -23 26 0
-24 27 0
-25 27 0
-26 27 0
-27 24 25 26 0
-28 -27 0
-28 23 0
27 -23 28 0
-29 3 0
-29 6 0
-29 -27 0
-3 -6 27 29 0
-30 -27 0
-30 -22 0
-30 16 0
27 22 -16 30 0
-31 2 0
-31 3 0
-31 5 0
-31 6 0
-2 -3 -5 -6 31 0
-32 2 0
-32 5 0
-32 -22 0
-32 16 0
-2 -5 22 -16 32 0
-28 33 0
-29 33 0
-30 33 0
-31 33 0
-32 33 0
-33 28 29 30 31 32 0
-50 3 0
-50 6 0
-3 -6 50 0
-51 -3 0
-51 -6 0
3 6 51 0
-50 52 0
-51 52 0
-52 50 51 0
-53 34 0
-53 52 0
-34 -52 53 0
-54 -34 0
-54 -52 0
34 52 54 0
-53 55 0
-54 55 0
-55 53 54 0
-56 -36 0
-56 35 0
36 -35 56 0
-57 3 0
-57 6 0
-57 -36 0
-3 -6 36 57 0
-58 -36 0
-58 -55 0
-58 34 0
36 55 -34 58 0
-59 2 0
-59 3 0
-59 5 0
-59 6 0
-2 -3 -5 -6 59 0
-60 2 0
-60 5 0
-60 -55 0
-60 34 0
-2 -5 55 -34 60 0
-56 61 0
-57 61 0
-58 61 0
-59 61 0
-60 61 0
-61 56 57 58 59 60 0
-62 1 0
-62 4 0
-1 -4 62 0
-63 -1 0
-63 -4 0
1 4 63 0
-62 64 0
-63 64 0
-64 62 63 0
-65 -7 0
-65 64 0
7 -64 65 0
-66 -7 0
-66 -64 0
7 64 66 0
-65 67 0
-66 67 0
-67 65 66 0
-68 -27 36 0
-68 27 -36 0
68 -27 -36 0
68 27 36 0
-69 -33 61 0
-69 33 -61 0
69 -33 -61 0
69 33 61 0
-70 -22 55 0
-70 22 -55 0
70 -22 -55 0
70 22 55 0
-71 -13 67 0
-71 13 -67 0
71 -13 -67 0
71 13 67 0
-68 -69 -70 -71 72 0
-72 68 0
-72 69 0
-72 70 0
-72 71 0
-2 -37 -73 0
-2 37 73 0
2 -37 73 0
2 37 -73 0
-5 -38 -74 0
-5 38 74 0
5 -38 74 0
5 38 -74 0
-1 -39 -75 0
-1 39 75 0
1 -39 75 0
1 39 -75 0
-4 -40 -76 0
-4 40 76 0
4 -40 76 0
4 40 -76 0
-7 -41 -77 0
-7 41 77 0
7 -41 77 0
7 41 -77 0
-67 -42 -78 0
-67 42 78 0
67 -42 78 0
67 42 -78 0
-2 -43 -79 0
-2 43 79 0
2 -43 79 0
2 43 -79 0
-3 -44 -80 0
-3 44 80 0
3 -44 80 0
3 44 -80 0
-5 -45 -81 0
-5 45 81 0
5 -45 81 0
5 45 -81 0
-6 -46 -82 0
-6 46 82 0
6 -46 82 0
6 46 -82 0
-55 -47 -83 0
-55 47 83 0
55 -47 83 0
55 47 -83 0
-34 -48 -84 0
-34 48 84 0
34 -48 84 0
34 48 -84 0
-35 -49 -85 0
-35 49 85 0
35 -49 85 0
35 49 -85 0
73 74 75 76 77 78 79 80 81 82 83 84 85 72 0
1 -314 0
4 -314 0
-1 -4 314 0
-1 -315 0
-4 -315 0
1 4 315 0
-8 -316 0
-9 -316 0
8 9 316 0
7 -317 0
10 -317 0
-7 -10 317 0
-7 -318 0
-10 -318 0
7 10 318 0
-11 -319 0
-12 -319 0
11 12 319 0
4 -320 0
7 -320 0
-4 -7 320 0
1 -321 0
-13 -321 0
-1 13 321 0
-14 -322 0
-15 -322 0
14 15 322 0
3 -323 0
6 -323 0
-3 -6 323 0
-3 -324 0
-6 -324 0
3 6 324 0
-17 -325 0
-18 -325 0
17 18 325 0
16 -326 0
19 -326 0
-16 -19 326 0
-16 -327 0
-19 -327 0
16 19 327 0
-20 -328 0
-21 -328 0
20 21 328 0
-2 -329 0
-5 -329 0
2 5 329 0
2 -330 0
5 -330 0
-2 -5 330 0
3 -331 0
-22 -331 0
-3 22 331 0
23 -332 0
331 -332 0
-23 -331 332 0
6 -333 0
16 -333 0
-6 -16 333 0
23 -334 0
333 -334 0
-23 -333 334 0
-24 -335 0
-25 -335 0
24 25 335 0
-26 -336 0
335 -336 0
26 -335 336 0
23 -337 0
-27 -337 0
-23 27 337 0
-27 -338 0
323 -338 0
27 -323 338 0
16 -339 0
-22 -339 0
-16 22 339 0
-27 -340 0
339 -340 0
27 -339 340 0
323 -341 0
330 -341 0
-323 -330 341 0
330 -342 0
339 -342 0
-330 -339 342 0
-28 -343 0
-29 -343 0
28 29 343 0
-30 -344 0
-31 -344 0
30 31 344 0
-32 -345 0
344 -345 0
32 -344 345 0
343 -346 0
345 -346 0
-343 -345 346 0
-50 -347 0
-51 -347 0
50 51 347 0
-53 -348 0
-54 -348 0
53 54 348 0
-52 -349 0
-54 -349 0
52 54 349 0
-55 -350 0
330 -350 0
55 -330 350 0
349 -351 0
350 -351 0
-349 -350 351 0
-56 -352 0
-57 -352 0
56 57 352 0
-58 -353 0
-59 -353 0
58 59 353 0
-60 -354 0
353 -354 0
60 -353 354 0
352 -355 0
354 -355 0
-352 -354 355 0
-62 -356 0
-63 -356 0
62 63 356 0
-7 -357 0
64 -357 0
7 -64 357 0
-7 -358 0
-64 -358 0
7 64 358 0
-65 -359 0
-66 -359 0
65 66 359 0
33 -360 0
-61 -360 0
-33 61 360 0
-33 -361 0
61 -361 0
33 -61 361 0
-360 -362 0
-361 -362 0
360 361 362 0
22 -363 0
-55 -363 0
-22 55 363 0
-22 -364 0
55 -364 0
22 -55 364 0
-363 -365 0
-364 -365 0
363 364 365 0
13 -366 0
-67 -366 0
-13 67 366 0
-13 -367 0
67 -367 0
13 -67 367 0
-366 -368 0
-367 -368 0
366 367 368 0
68 -369 0
69 -369 0
-68 -69 369 0
70 -370 0
71 -370 0
-70 -71 370 0
369 -371 0
370 -371 0
-369 -370 371 0
-2 -372 0
-37 -372 0
2 37 372 0
2 -373 0
37 -373 0
-2 -37 373 0
-372 -374 0
-373 -374 0
372 373 374 0
-5 -375 0
-38 -375 0
5 38 375 0
5 -376 0
38 -376 0
-5 -38 376 0
-375 -377 0
-376 -377 0
375 376 377 0
-1 -378 0
-39 -378 0
1 39 378 0
1 -379 0
39 -379 0
-1 -39 379 0
-378 -380 0
-379 -380 0
378 379 380 0
-4 -381 0
-40 -381 0
4 40 381 0
4 -382 0
40 -382 0
-4 -40 382 0
-381 -383 0
-382 -383 0
381 382 383 0
-7 -384 0
-41 -384 0
7 41 384 0
7 -385 0
41 -385 0
-7 -41 385 0
-384 -386 0
-385 -386 0
384 385 386 0
7 -387 0
-42 -387 0
-7 42 387 0
-7 -388 0
42 -388 0
7 -42 388 0
-387 -389 0
-388 -389 0
387 388 389 0
-2 -390 0
-43 -390 0
2 43 390 0
2 -391 0
43 -391 0
-2 -43 391 0
-390 -392 0
-391 -392 0
390 391 392 0
-3 -393 0
-44 -393 0
3 44 393 0
3 -394 0
44 -394 0
-3 -44 394 0
-393 -395 0
-394 -395 0
393 394 395 0
-5 -396 0
-45 -396 0
5 45 396 0
5 -397 0
45 -397 0
-5 -45 397 0
-396 -398 0
-397 -398 0
396 397 398 0
-6 -399 0
-46 -399 0
6 46 399 0
6 -400 0
46 -400 0
-6 -46 400 0
-399 -401 0
-400 -401 0
399 400 401 0
-47 -402 0
-55 -402 0
47 55 402 0
47 -403 0
55 -403 0
-47 -55 403 0
-402 -404 0
-403 -404 0
402 403 404 0
-53 -405 0
-349 -405 0
53 349 405 0
-48 -406 0
405 -406 0
48 -405 406 0
-48 -407 0
-54 -407 0
48 54 407 0
-405 -408 0
-407 -408 0
405 407 408 0
-406 -409 0
-408 -409 0
406 408 409 0
